# Solution for model Food_Bank
# Objective value = 8.3525252086452325e+05
x_1_44 1
x_1_198 1
x_1_202 0
x_1_47 1
x_1_197 1
x_1_199 1
x_1_29 1
x_1_97 1
x_1_15 1
x_1_43 0
x_1_123 0
x_1_42 1
x_1_205 1
x_1_122 1
x_1_133 1
x_1_220 1
x_1_101 1
x_1_86 1
x_1_17 1
x_1_130 1
x_1_208 1
x_1_214 1
x_1_146 1
y_44_28 0
y_44_19 0
y_44_10 0
y_44_27 0
y_44_11 1
y_44_2 0
y_44_12 0
y_44_25 0
y_44_9 0
y_44_76 0
y_198_28 0
y_198_19 0
y_198_10 0
y_198_27 0
y_198_11 0
y_198_2 1
y_198_12 0
y_198_25 0
y_198_9 0
y_198_76 0
y_202_28 0
y_202_19 0
y_202_10 0
y_202_27 0
y_202_11 0
y_202_2 0
y_202_12 0
y_202_25 0
y_202_9 0
y_202_76 0
y_47_28 0
y_47_19 0
y_47_10 0
y_47_27 0
y_47_11 0
y_47_2 0
y_47_12 0
y_47_25 0
y_47_9 1
y_47_76 0
y_197_28 0
y_197_19 0
y_197_10 1
y_197_27 0
y_197_11 0
y_197_2 0
y_197_12 0
y_197_25 0
y_197_9 0
y_197_76 0
y_199_28 0
y_199_19 0
y_199_10 0
y_199_27 0
y_199_11 0
y_199_2 0
y_199_12 0
y_199_25 0
y_199_9 0
y_199_76 1
y_29_28 0
y_29_19 0
y_29_10 0
y_29_27 0
y_29_11 0
y_29_2 0
y_29_12 0
y_29_25 1
y_29_9 0
y_29_76 0
y_97_28 0
y_97_19 0
y_97_10 0
y_97_27 0
y_97_11 1
y_97_2 0
y_97_12 0
y_97_25 0
y_97_9 0
y_97_76 0
y_15_28 0
y_15_19 1
y_15_10 0
y_15_27 0
y_15_11 0
y_15_2 0
y_15_12 0
y_15_25 0
y_15_9 0
y_15_76 0
y_43_28 0
y_43_19 0
y_43_10 0
y_43_27 0
y_43_11 0
y_43_2 0
y_43_12 0
y_43_25 0
y_43_9 0
y_43_76 0
y_123_28 0
y_123_19 0
y_123_10 0
y_123_27 0
y_123_11 0
y_123_2 0
y_123_12 0
y_123_25 0
y_123_9 0
y_123_76 0
y_42_28 0
y_42_19 0
y_42_10 0
y_42_27 0
y_42_11 0
y_42_2 0
y_42_12 1
y_42_25 0
y_42_9 0
y_42_76 0
y_205_28 0
y_205_19 0
y_205_10 0
y_205_27 1
y_205_11 0
y_205_2 0
y_205_12 0
y_205_25 0
y_205_9 0
y_205_76 0
y_122_28 0
y_122_19 0
y_122_10 1
y_122_27 0
y_122_11 0
y_122_2 0
y_122_12 0
y_122_25 0
y_122_9 0
y_122_76 0
y_133_28 0
y_133_19 0
y_133_10 0
y_133_27 0
y_133_11 0
y_133_2 0
y_133_12 1
y_133_25 0
y_133_9 0
y_133_76 0
y_220_28 0
y_220_19 0
y_220_10 0
y_220_27 0
y_220_11 0
y_220_2 1
y_220_12 0
y_220_25 0
y_220_9 0
y_220_76 0
y_101_28 0
y_101_19 0
y_101_10 0
y_101_27 0
y_101_11 0
y_101_2 0
y_101_12 0
y_101_25 1
y_101_9 0
y_101_76 0
y_86_28 0
y_86_19 0
y_86_10 0
y_86_27 0
y_86_11 0
y_86_2 0
y_86_12 0
y_86_25 0
y_86_9 1
y_86_76 0
y_17_28 1
y_17_19 0
y_17_10 0
y_17_27 0
y_17_11 0
y_17_2 0
y_17_12 0
y_17_25 0
y_17_9 0
y_17_76 0
y_130_28 0
y_130_19 0
y_130_10 0
y_130_27 1
y_130_11 0
y_130_2 0
y_130_12 0
y_130_25 0
y_130_9 0
y_130_76 0
y_208_28 0
y_208_19 1
y_208_10 0
y_208_27 0
y_208_11 0
y_208_2 0
y_208_12 0
y_208_25 0
y_208_9 0
y_208_76 0
y_214_28 0
y_214_19 0
y_214_10 0
y_214_27 0
y_214_11 0
y_214_2 0
y_214_12 0
y_214_25 0
y_214_9 0
y_214_76 1
y_146_28 1
y_146_19 0
y_146_10 0
y_146_27 0
y_146_11 0
y_146_2 0
y_146_12 0
y_146_25 0
y_146_9 0
y_146_76 0
aFP_1_44 5.5302844787571457e+03
aFP_1_198 3.2752098653722251e+03
aFP_1_202 0
aFP_1_47 1.2152880493240475e+03
aFP_1_197 5.2602643100884452e+03
aFP_1_199 4.8528880507228514e+03
aFP_1_29 6.3224145581417706e+03
aFP_1_97 5.5302844786954811e+03
aFP_1_15 6.5992423268166376e+03
aFP_1_43 0
aFP_1_123 0
aFP_1_42 4.7197507116606321e+03
aFP_1_205 4.6915285058656909e+03
aFP_1_122 5.6046515864099647e+03
aFP_1_133 6.1928180866606317e+03
aFP_1_220 3.2752098653722251e+03
aFP_1_101 6.3224145581417706e+03
aFP_1_86 1.2152880493240082e+03
aFP_1_17 4.7715601820205420e+03
aFP_1_130 4.6915285058612690e+03
aFP_1_208 6.5992423268166376e+03
aFP_1_214 3.9799585066000454e+03
aFP_1_146 4.7715601820080356e+03
aPZ_44_28 0
aPZ_198_28 0
aPZ_202_28 0
aPZ_47_28 0
aPZ_197_28 0
aPZ_199_28 0
aPZ_29_28 0
aPZ_97_28 0
aPZ_15_28 0
aPZ_43_28 0
aPZ_123_28 0
aPZ_42_28 0
aPZ_205_28 0
aPZ_122_28 0
aPZ_133_28 0
aPZ_220_28 0
aPZ_101_28 0
aPZ_86_28 0
aPZ_17_28 4.7715601820205420e+03
aPZ_130_28 0
aPZ_208_28 0
aPZ_214_28 0
aPZ_146_28 4.7715601820080356e+03
aPZ_44_19 0
aPZ_198_19 0
aPZ_202_19 0
aPZ_47_19 0
aPZ_197_19 0
aPZ_199_19 0
aPZ_29_19 0
aPZ_97_19 0
aPZ_15_19 6.5992423268166376e+03
aPZ_43_19 0
aPZ_123_19 0
aPZ_42_19 0
aPZ_205_19 0
aPZ_122_19 0
aPZ_133_19 0
aPZ_220_19 0
aPZ_101_19 0
aPZ_86_19 0
aPZ_17_19 0
aPZ_130_19 0
aPZ_208_19 6.5992423268166376e+03
aPZ_214_19 0
aPZ_146_19 0
aPZ_44_10 0
aPZ_198_10 0
aPZ_202_10 0
aPZ_47_10 0
aPZ_197_10 5.2602643100884707e+03
aPZ_199_10 0
aPZ_29_10 0
aPZ_97_10 0
aPZ_15_10 0
aPZ_43_10 0
aPZ_123_10 0
aPZ_42_10 0
aPZ_205_10 0
aPZ_122_10 5.6046515864099647e+03
aPZ_133_10 0
aPZ_220_10 0
aPZ_101_10 0
aPZ_86_10 0
aPZ_17_10 0
aPZ_130_10 0
aPZ_208_10 0
aPZ_214_10 0
aPZ_146_10 0
aPZ_44_27 0
aPZ_198_27 0
aPZ_202_27 0
aPZ_47_27 0
aPZ_197_27 0
aPZ_199_27 0
aPZ_29_27 0
aPZ_97_27 0
aPZ_15_27 0
aPZ_43_27 0
aPZ_123_27 0
aPZ_42_27 0
aPZ_205_27 4.6915285058656909e+03
aPZ_122_27 0
aPZ_133_27 0
aPZ_220_27 0
aPZ_101_27 0
aPZ_86_27 0
aPZ_17_27 0
aPZ_130_27 4.6915285058657391e+03
aPZ_208_27 0
aPZ_214_27 0
aPZ_146_27 0
aPZ_44_11 5.5302844787571739e+03
aPZ_198_11 0
aPZ_202_11 0
aPZ_47_11 0
aPZ_197_11 0
aPZ_199_11 0
aPZ_29_11 0
aPZ_97_11 5.5302844786954811e+03
aPZ_15_11 0
aPZ_43_11 0
aPZ_123_11 0
aPZ_42_11 0
aPZ_205_11 0
aPZ_122_11 0
aPZ_133_11 0
aPZ_220_11 0
aPZ_101_11 0
aPZ_86_11 0
aPZ_17_11 0
aPZ_130_11 0
aPZ_208_11 0
aPZ_214_11 0
aPZ_146_11 0
aPZ_44_2 0
aPZ_198_2 3.2752098653722251e+03
aPZ_202_2 0
aPZ_47_2 0
aPZ_197_2 0
aPZ_199_2 0
aPZ_29_2 0
aPZ_97_2 0
aPZ_15_2 0
aPZ_43_2 0
aPZ_123_2 0
aPZ_42_2 0
aPZ_205_2 0
aPZ_122_2 0
aPZ_133_2 0
aPZ_220_2 3.2752098653722251e+03
aPZ_101_2 0
aPZ_86_2 0
aPZ_17_2 0
aPZ_130_2 0
aPZ_208_2 0
aPZ_214_2 0
aPZ_146_2 0
aPZ_44_12 0
aPZ_198_12 0
aPZ_202_12 0
aPZ_47_12 0
aPZ_197_12 0
aPZ_199_12 0
aPZ_29_12 0
aPZ_97_12 0
aPZ_15_12 0
aPZ_43_12 0
aPZ_123_12 0
aPZ_42_12 4.7197507116606321e+03
aPZ_205_12 0
aPZ_122_12 0
aPZ_133_12 6.1928180866606317e+03
aPZ_220_12 0
aPZ_101_12 0
aPZ_86_12 0
aPZ_17_12 0
aPZ_130_12 0
aPZ_208_12 0
aPZ_214_12 0
aPZ_146_12 0
aPZ_44_25 0
aPZ_198_25 0
aPZ_202_25 0
aPZ_47_25 0
aPZ_197_25 0
aPZ_199_25 0
aPZ_29_25 6.3224145581417706e+03
aPZ_97_25 0
aPZ_15_25 0
aPZ_43_25 0
aPZ_123_25 0
aPZ_42_25 0
aPZ_205_25 0
aPZ_122_25 0
aPZ_133_25 0
aPZ_220_25 0
aPZ_101_25 6.3224145581417706e+03
aPZ_86_25 0
aPZ_17_25 0
aPZ_130_25 0
aPZ_208_25 0
aPZ_214_25 0
aPZ_146_25 0
aPZ_44_9 0
aPZ_198_9 0
aPZ_202_9 0
aPZ_47_9 1.2152880493240475e+03
aPZ_197_9 0
aPZ_199_9 0
aPZ_29_9 0
aPZ_97_9 0
aPZ_15_9 0
aPZ_43_9 0
aPZ_123_9 0
aPZ_42_9 0
aPZ_205_9 0
aPZ_122_9 0
aPZ_133_9 0
aPZ_220_9 0
aPZ_101_9 0
aPZ_86_9 1.2152880493240082e+03
aPZ_17_9 0
aPZ_130_9 0
aPZ_208_9 0
aPZ_214_9 0
aPZ_146_9 0
aPZ_44_76 0
aPZ_198_76 0
aPZ_202_76 0
aPZ_47_76 0
aPZ_197_76 0
aPZ_199_76 4.8528880507228514e+03
aPZ_29_76 0
aPZ_97_76 0
aPZ_15_76 0
aPZ_43_76 0
aPZ_123_76 0
aPZ_42_76 0
aPZ_205_76 0
aPZ_122_76 0
aPZ_133_76 0
aPZ_220_76 0
aPZ_101_76 0
aPZ_86_76 0
aPZ_17_76 0
aPZ_130_76 0
aPZ_208_76 0
aPZ_214_76 3.9799585066000645e+03
aPZ_146_76 0
nT_1_44 1
nT_1_198 1
nT_1_202 0
nT_1_47 1
nT_1_197 1
nT_1_199 1
nT_1_29 1
nT_1_97 1
nT_1_15 1
nT_1_43 0
nT_1_123 0
nT_1_42 1
nT_1_205 1
nT_1_122 1
nT_1_133 1
nT_1_220 1
nT_1_101 1
nT_1_86 1
nT_1_17 1
nT_1_130 1
nT_1_208 1
nT_1_214 1
nT_1_146 1
ort_1_44 12
ort_1_198 1.2631578947368268e+01
ort_1_202 0
ort_1_47 120
ort_1_197 12
ort_1_199 1.4117647058817115e+01
ort_1_29 12
ort_1_97 12
ort_1_15 12
ort_1_43 0
ort_1_123 0
ort_1_42 12
ort_1_205 12
ort_1_122 1.2631578947360438e+01
ort_1_133 15
ort_1_220 1.2631578947368268e+01
ort_1_101 12
ort_1_86 120
ort_1_17 12
ort_1_130 12
ort_1_208 12
ort_1_214 12
ort_1_146 12
opt_1_44 1.1716819109395477e+01
opt_1_198 1.2327818454099658e+01
opt_1_202 0
opt_1_47 1.1972590226412792e+02
opt_1_197 1.1470320117828912e+01
opt_1_199 1.3561669322947639e+01
opt_1_29 1.1357212605408055e+01
opt_1_97 1.1396819109379775e+01
opt_1_15 1.1336704550307644e+01
opt_1_43 0
opt_1_123 0
opt_1_42 1.1377345797732112e+01
opt_1_205 1.1378756908021581e+01
opt_1_122 1.1938013034706607e+01
opt_1_133 1.4270359095648779e+01
opt_1_220 1.2047818454099657e+01
opt_1_101 1.1223879272074722e+01
opt_1_86 1.1947256893079073e+02
opt_1_17 1.1288088657547448e+01
opt_1_130 1.1292090241356618e+01
opt_1_208 1.1196704550307645e+01
opt_1_214 1.1321002074678127e+01
opt_1_146 1.1274755324189574e+01
dt_44_28 0
dt_44_19 0
dt_44_10 0
dt_44_27 0
dt_44_11 2.4315995676001507e+00
dt_44_2 0
dt_44_12 0
dt_44_25 0
dt_44_9 0
dt_44_76 0
dt_198_28 0
dt_198_19 0
dt_198_10 0
dt_198_27 0
dt_198_11 0
dt_198_2 1.4583234528802791e+00
dt_198_12 0
dt_198_25 0
dt_198_9 0
dt_198_76 0
dt_202_28 0
dt_202_19 0
dt_202_10 0
dt_202_27 0
dt_202_11 0
dt_202_2 0
dt_202_12 0
dt_202_25 0
dt_202_9 0
dt_202_76 0
dt_47_28 0
dt_47_19 0
dt_47_10 0
dt_47_27 0
dt_47_11 0
dt_47_2 0
dt_47_12 0
dt_47_25 0
dt_47_9 9.6935081726248384e-01
dt_47_76 0
dt_197_28 0
dt_197_19 0
dt_197_10 2.3530925085841634e+00
dt_197_27 0
dt_197_11 0
dt_197_2 0
dt_197_12 0
dt_197_25 0
dt_197_9 0
dt_197_76 0
dt_199_28 0
dt_199_19 0
dt_199_10 0
dt_199_27 0
dt_199_11 0
dt_199_2 0
dt_199_12 0
dt_199_25 0
dt_199_9 0
dt_199_76 2.3449854773090011e+00
dt_29_28 0
dt_29_19 0
dt_29_10 0
dt_29_27 0
dt_29_11 0
dt_29_2 0
dt_29_12 0
dt_29_25 2.5328450953496215e+00
dt_29_9 0
dt_29_76 0
dt_97_28 0
dt_97_19 0
dt_97_10 0
dt_97_27 0
dt_97_11 2.4315995677067570e+00
dt_97_2 0
dt_97_12 0
dt_97_25 0
dt_97_9 0
dt_97_76 0
dt_15_28 0
dt_15_19 2.7097348143857465e+00
dt_15_10 0
dt_15_27 0
dt_15_11 0
dt_15_2 0
dt_15_12 0
dt_15_25 0
dt_15_9 0
dt_15_76 0
dt_43_28 0
dt_43_19 0
dt_43_10 0
dt_43_27 0
dt_43_11 0
dt_43_2 0
dt_43_12 0
dt_43_25 0
dt_43_9 0
dt_43_76 0
dt_123_28 0
dt_123_19 0
dt_123_10 0
dt_123_27 0
dt_123_11 0
dt_123_2 0
dt_123_12 0
dt_123_25 0
dt_123_9 0
dt_123_76 0
dt_42_28 0
dt_42_19 0
dt_42_10 0
dt_42_27 0
dt_42_11 0
dt_42_2 0
dt_42_12 2.3879127490812211e+00
dt_42_25 0
dt_42_9 0
dt_42_76 0
dt_205_28 0
dt_205_19 0
dt_205_10 0
dt_205_27 1.9940349770513903e+00
dt_205_11 0
dt_205_2 0
dt_205_12 0
dt_205_25 0
dt_205_9 0
dt_205_76 0
dt_122_28 0
dt_122_19 0
dt_122_10 2.3530925085657186e+00
dt_122_27 0
dt_122_11 0
dt_122_2 0
dt_122_12 0
dt_122_25 0
dt_122_9 0
dt_122_76 0
dt_133_28 0
dt_133_19 0
dt_133_10 0
dt_133_27 0
dt_133_11 0
dt_133_2 0
dt_133_12 2.3879127490812211e+00
dt_133_25 0
dt_133_9 0
dt_133_76 0
dt_220_28 0
dt_220_19 0
dt_220_10 0
dt_220_27 0
dt_220_11 0
dt_220_2 1.4583234528802791e+00
dt_220_12 0
dt_220_25 0
dt_220_9 0
dt_220_76 0
dt_101_28 0
dt_101_19 0
dt_101_10 0
dt_101_27 0
dt_101_11 0
dt_101_2 0
dt_101_12 0
dt_101_25 2.5328450953496215e+00
dt_101_9 0
dt_101_76 0
dt_86_28 0
dt_86_19 0
dt_86_10 0
dt_86_27 0
dt_86_11 0
dt_86_2 0
dt_86_12 0
dt_86_25 0
dt_86_9 9.6935081726248384e-01
dt_86_76 0
dt_17_28 2.39804606370274
dt_17_19 0
dt_17_10 0
dt_17_27 0
dt_17_11 0
dt_17_2 0
dt_17_12 0
dt_17_25 0
dt_17_9 0
dt_17_76 0
dt_130_28 0
dt_130_19 0
dt_130_10 0
dt_130_27 1.9940349770513903e+00
dt_130_11 0
dt_130_2 0
dt_130_12 0
dt_130_25 0
dt_130_9 0
dt_130_76 0
dt_208_28 0
dt_208_19 2.7097348143857465e+00
dt_208_10 0
dt_208_27 0
dt_208_11 0
dt_208_2 0
dt_208_12 0
dt_208_25 0
dt_208_9 0
dt_208_76 0
dt_214_28 0
dt_214_19 0
dt_214_10 0
dt_214_27 0
dt_214_11 0
dt_214_2 0
dt_214_12 0
dt_214_25 0
dt_214_9 0
dt_214_76 2.3449854773091663e+00
dt_146_28 2.39804606370274
dt_146_19 0
dt_146_10 0
dt_146_27 0
dt_146_11 0
dt_146_2 0
dt_146_12 0
dt_146_25 0
dt_146_9 0
dt_146_76 0
ut_1_44 1.9355995675650011e+00
ut_1_198 1.1463234528802788e+00
ut_1_202 0
ut_1_47 4.2535081726341661e-01
ut_1_197 1.8410925085309557e+00
ut_1_199 1.6985108177529979e+00
ut_1_29 2.2128450953496195e+00
ut_1_97 1.9355995675434183e+00
ut_1_15 2.3097348143858230e+00
ut_1_43 0
ut_1_123 0
ut_1_42 1.6519127490812213e+00
ut_1_205 1.6420349770529918e+00
ut_1_122 1.9616280552434877e+00
ut_1_133 2.1674863303312213e+00
ut_1_220 1.1463234528802788e+00
ut_1_101 2.2128450953496195e+00
ut_1_86 4.2535081726340285e-01
ut_1_17 1.6700460637071897e+00
ut_1_130 1.6420349770514442e+00
ut_1_208 2.3097348143858230e+00
ut_1_214 1.3929854773100159e+00
ut_1_146 1.6700460637028125e+00
fFP_1_44 20
fFP_1_198 19
fFP_1_202 0
fFP_1_47 2
fFP_1_197 20
fFP_1_199 17
fFP_1_29 20
fFP_1_97 20
fFP_1_15 20
fFP_1_43 0
fFP_1_123 0
fFP_1_42 20
fFP_1_205 20
fFP_1_122 19
fFP_1_133 16
fFP_1_220 19
fFP_1_101 20
fFP_1_86 2
fFP_1_17 20
fFP_1_130 20
fFP_1_208 20
fFP_1_214 20
fFP_1_146 20
dt_28 2.39804606370274
dt_19 2.7097348143857465e+00
dt_10 2.3530925085365748e+00
dt_27 1.9940349770513897e+00
dt_11 2.4315995675710020e+00
dt_2 1.4583234528802791e+00
dt_12 2.3879127490812211e+00
dt_25 2.5328450953496215e+00
dt_9 9.6935081726248384e-01
dt_76 2.3449854773084668e+00
dtt_28 4.7960921274053426e+01
dtt_19 5.4194696287713811e+01
dtt_10 47.0618501707315
dtt_27 3.9880699541027752e+01
dtt_11 4.8631991351420027e+01
dtt_2 2.9166469057604672e+01
dtt_12 4.7758254981621846e+01
dtt_25 5.0656901906991749e+01
dtt_9 1.9387016345226584e+01
dtt_76 4.6899709546169333e+01
dep_cost 770132.066649015
log_cost 6.5120454215508282e+04
z 8.3525252086452325e+05
